c File: flat50_3_0.col
c
c SOURCE: Joseph Culberson (joe@cs.ualberta.ca)
c DESCRIPTION: Quasi-random coloring problem
c              generated with flatness = 0
c                             probability = 0.139
c                             known coloring = 3
c                             random seed = 1930
c              Creation Date:  Tue Jun  9 12:21:26 1998
c Maximum degree = 8 Minimum degree = 2
c p edge 50 115
c cnf created by edge2cnf
p cnf 150 545
-1 -2 0
-1 -3 0
-2 -3 0
1 2 3 0
-4 -5 0
-4 -6 0
-5 -6 0
4 5 6 0
-7 -8 0
-7 -9 0
-8 -9 0
7 8 9 0
-10 -11 0
-10 -12 0
-11 -12 0
10 11 12 0
-13 -14 0
-13 -15 0
-14 -15 0
13 14 15 0
-16 -17 0
-16 -18 0
-17 -18 0
16 17 18 0
-19 -20 0
-19 -21 0
-20 -21 0
19 20 21 0
-22 -23 0
-22 -24 0
-23 -24 0
22 23 24 0
-25 -26 0
-25 -27 0
-26 -27 0
25 26 27 0
-28 -29 0
-28 -30 0
-29 -30 0
28 29 30 0
-31 -32 0
-31 -33 0
-32 -33 0
31 32 33 0
-34 -35 0
-34 -36 0
-35 -36 0
34 35 36 0
-37 -38 0
-37 -39 0
-38 -39 0
37 38 39 0
-40 -41 0
-40 -42 0
-41 -42 0
40 41 42 0
-43 -44 0
-43 -45 0
-44 -45 0
43 44 45 0
-46 -47 0
-46 -48 0
-47 -48 0
46 47 48 0
-49 -50 0
-49 -51 0
-50 -51 0
49 50 51 0
-52 -53 0
-52 -54 0
-53 -54 0
52 53 54 0
-55 -56 0
-55 -57 0
-56 -57 0
55 56 57 0
-58 -59 0
-58 -60 0
-59 -60 0
58 59 60 0
-61 -62 0
-61 -63 0
-62 -63 0
61 62 63 0
-64 -65 0
-64 -66 0
-65 -66 0
64 65 66 0
-67 -68 0
-67 -69 0
-68 -69 0
67 68 69 0
-70 -71 0
-70 -72 0
-71 -72 0
70 71 72 0
-73 -74 0
-73 -75 0
-74 -75 0
73 74 75 0
-76 -77 0
-76 -78 0
-77 -78 0
76 77 78 0
-79 -80 0
-79 -81 0
-80 -81 0
79 80 81 0
-82 -83 0
-82 -84 0
-83 -84 0
82 83 84 0
-85 -86 0
-85 -87 0
-86 -87 0
85 86 87 0
-88 -89 0
-88 -90 0
-89 -90 0
88 89 90 0
-91 -92 0
-91 -93 0
-92 -93 0
91 92 93 0
-94 -95 0
-94 -96 0
-95 -96 0
94 95 96 0
-97 -98 0
-97 -99 0
-98 -99 0
97 98 99 0
-100 -101 0
-100 -102 0
-101 -102 0
100 101 102 0
-103 -104 0
-103 -105 0
-104 -105 0
103 104 105 0
-106 -107 0
-106 -108 0
-107 -108 0
106 107 108 0
-109 -110 0
-109 -111 0
-110 -111 0
109 110 111 0
-112 -113 0
-112 -114 0
-113 -114 0
112 113 114 0
-115 -116 0
-115 -117 0
-116 -117 0
115 116 117 0
-118 -119 0
-118 -120 0
-119 -120 0
118 119 120 0
-121 -122 0
-121 -123 0
-122 -123 0
121 122 123 0
-124 -125 0
-124 -126 0
-125 -126 0
124 125 126 0
-127 -128 0
-127 -129 0
-128 -129 0
127 128 129 0
-130 -131 0
-130 -132 0
-131 -132 0
130 131 132 0
-133 -134 0
-133 -135 0
-134 -135 0
133 134 135 0
-136 -137 0
-136 -138 0
-137 -138 0
136 137 138 0
-139 -140 0
-139 -141 0
-140 -141 0
139 140 141 0
-142 -143 0
-142 -144 0
-143 -144 0
142 143 144 0
-145 -146 0
-145 -147 0
-146 -147 0
145 146 147 0
-148 -149 0
-148 -150 0
-149 -150 0
148 149 150 0
-52 -1 0
-53 -2 0
-54 -3 0
-64 -1 0
-65 -2 0
-66 -3 0
-91 -1 0
-92 -2 0
-93 -3 0
-112 -1 0
-113 -2 0
-114 -3 0
-121 -1 0
-122 -2 0
-123 -3 0
-148 -1 0
-149 -2 0
-150 -3 0
-58 -4 0
-59 -5 0
-60 -6 0
-124 -4 0
-125 -5 0
-126 -6 0
-127 -4 0
-128 -5 0
-129 -6 0
-139 -4 0
-140 -5 0
-141 -6 0
-82 -7 0
-83 -8 0
-84 -9 0
-106 -7 0
-107 -8 0
-108 -9 0
-109 -7 0
-110 -8 0
-111 -9 0
-100 -10 0
-101 -11 0
-102 -12 0
-106 -10 0
-107 -11 0
-108 -12 0
-124 -10 0
-125 -11 0
-126 -12 0
-133 -10 0
-134 -11 0
-135 -12 0
-142 -10 0
-143 -11 0
-144 -12 0
-52 -13 0
-53 -14 0
-54 -15 0
-61 -13 0
-62 -14 0
-63 -15 0
-130 -13 0
-131 -14 0
-132 -15 0
-133 -13 0
-134 -14 0
-135 -15 0
-55 -16 0
-56 -17 0
-57 -18 0
-76 -16 0
-77 -17 0
-78 -18 0
-82 -16 0
-83 -17 0
-84 -18 0
-88 -16 0
-89 -17 0
-90 -18 0
-109 -16 0
-110 -17 0
-111 -18 0
-52 -19 0
-53 -20 0
-54 -21 0
-55 -19 0
-56 -20 0
-57 -21 0
-64 -19 0
-65 -20 0
-66 -21 0
-112 -19 0
-113 -20 0
-114 -21 0
-124 -19 0
-125 -20 0
-126 -21 0
-148 -19 0
-149 -20 0
-150 -21 0
-55 -22 0
-56 -23 0
-57 -24 0
-88 -22 0
-89 -23 0
-90 -24 0
-109 -22 0
-110 -23 0
-111 -24 0
-115 -22 0
-116 -23 0
-117 -24 0
-121 -22 0
-122 -23 0
-123 -24 0
-64 -25 0
-65 -26 0
-66 -27 0
-76 -25 0
-77 -26 0
-78 -27 0
-97 -25 0
-98 -26 0
-99 -27 0
-139 -25 0
-140 -26 0
-141 -27 0
-85 -28 0
-86 -29 0
-87 -30 0
-136 -28 0
-137 -29 0
-138 -30 0
-58 -31 0
-59 -32 0
-60 -33 0
-70 -31 0
-71 -32 0
-72 -33 0
-76 -31 0
-77 -32 0
-78 -33 0
-100 -31 0
-101 -32 0
-102 -33 0
-130 -31 0
-131 -32 0
-132 -33 0
-58 -34 0
-59 -35 0
-60 -36 0
-61 -34 0
-62 -35 0
-63 -36 0
-79 -34 0
-80 -35 0
-81 -36 0
-85 -34 0
-86 -35 0
-87 -36 0
-103 -34 0
-104 -35 0
-105 -36 0
-136 -34 0
-137 -35 0
-138 -36 0
-67 -37 0
-68 -38 0
-69 -39 0
-82 -37 0
-83 -38 0
-84 -39 0
-88 -37 0
-89 -38 0
-90 -39 0
-91 -37 0
-92 -38 0
-93 -39 0
-103 -37 0
-104 -38 0
-105 -39 0
-127 -37 0
-128 -38 0
-129 -39 0
-133 -37 0
-134 -38 0
-135 -39 0
-139 -37 0
-140 -38 0
-141 -39 0
-55 -40 0
-56 -41 0
-57 -42 0
-61 -40 0
-62 -41 0
-63 -42 0
-58 -43 0
-59 -44 0
-60 -45 0
-67 -43 0
-68 -44 0
-69 -45 0
-109 -43 0
-110 -44 0
-111 -45 0
-136 -43 0
-137 -44 0
-138 -45 0
-148 -43 0
-149 -44 0
-150 -45 0
-82 -46 0
-83 -47 0
-84 -48 0
-142 -46 0
-143 -47 0
-144 -48 0
-148 -46 0
-149 -47 0
-150 -48 0
-61 -49 0
-62 -50 0
-63 -51 0
-70 -49 0
-71 -50 0
-72 -51 0
-106 -49 0
-107 -50 0
-108 -51 0
-115 -49 0
-116 -50 0
-117 -51 0
-115 -52 0
-116 -53 0
-117 -54 0
-124 -52 0
-125 -53 0
-126 -54 0
-148 -52 0
-149 -53 0
-150 -54 0
-103 -55 0
-104 -56 0
-105 -57 0
-115 -55 0
-116 -56 0
-117 -57 0
-133 -55 0
-134 -56 0
-135 -57 0
-142 -55 0
-143 -56 0
-144 -57 0
-148 -58 0
-149 -59 0
-150 -60 0
-142 -61 0
-143 -62 0
-144 -63 0
-103 -64 0
-104 -65 0
-105 -66 0
-106 -64 0
-107 -65 0
-108 -66 0
-112 -64 0
-113 -65 0
-114 -66 0
-121 -64 0
-122 -65 0
-123 -66 0
-130 -67 0
-131 -68 0
-132 -69 0
-121 -70 0
-122 -71 0
-123 -72 0
-133 -70 0
-134 -71 0
-135 -72 0
-142 -70 0
-143 -71 0
-144 -72 0
-106 -73 0
-107 -74 0
-108 -75 0
-115 -73 0
-116 -74 0
-117 -75 0
-118 -73 0
-119 -74 0
-120 -75 0
-136 -79 0
-137 -80 0
-138 -81 0
-118 -82 0
-119 -83 0
-120 -84 0
-145 -82 0
-146 -83 0
-147 -84 0
-112 -85 0
-113 -86 0
-114 -87 0
-115 -85 0
-116 -86 0
-117 -87 0
-130 -88 0
-131 -89 0
-132 -90 0
-142 -88 0
-143 -89 0
-144 -90 0
-139 -91 0
-140 -92 0
-141 -93 0
-112 -94 0
-113 -95 0
-114 -96 0
-118 -94 0
-119 -95 0
-120 -96 0
-145 -94 0
-146 -95 0
-147 -96 0
-148 -94 0
-149 -95 0
-150 -96 0
-106 -97 0
-107 -98 0
-108 -99 0
-112 -97 0
-113 -98 0
-114 -99 0
-118 -97 0
-119 -98 0
-120 -99 0
-130 -97 0
-131 -98 0
-132 -99 0
-130 -100 0
-131 -101 0
-132 -102 0
-148 -100 0
-149 -101 0
-150 -102 0
